p tw 30 45
1 13
1 20
1 21
2 8
2 9
2 23
3 6
3 10
3 17
4 9
4 13
4 17
5 15
5 18
5 23
6 11
6 26
7 11
7 25
7 27
8 12
8 30
9 28
10 28
10 29
11 19
12 25
12 27
13 26
14 16
14 28
14 30
15 23
15 27
16 21
16 22
17 26
18 24
18 30
19 22
19 24
20 21
20 22
24 29
25 29
